&GLOBAL  
    PROJECT results/liquid1150K_PBE
    RUN_TYPE MD
    PRINT_LEVEL MEDIUM # LOW, MEDIUM work - HIGH, DEBUG crash code
    SEED 123456
    WALLTIME 23:50:00
    PREFERRED_FFT_LIBRARY FFTSG
&END GLOBAL

&EXT_RESTART 
    RESTART_FILE_NAME results/liquid1150K_PBE-1.restart
&END EXT_RESTART

&ATOM
    &METHOD
        METHOD_TYPE KOHN-SHAM
    &END METHOD    
&END ATOM

&MOTION
    &MD
        ENSEMBLE NVT
	STEPS 10000
        MAX_STEPS 10000
	TIMESTEP 2.0 #fs
	TEMPERATURE 1150
	COMVEL_TOL 1E-12 # maximum accepted velocity of center of mass
	&THERMOSTAT
	    TYPE AD_LANGEVIN
	    &AD_LANGEVIN
                TIMECON_NH 20.0 #fs, Nose-Hoover part of the thermostat
		TIMECON_LANGEVIN 20.0 #fs Langevin part of the thermostat
	    &END AD_LANGEVIN
	&END THERMOSTAT
	&PRINT
	    FORCE_LAST T # Print output and restart file if walltime is reached
            &ENERGY
                &EACH
                    MD 1
		&END EACH
	    &END ENERGY
            &PROGRAM_RUN_INFO
                &EACH
                    MD 10
		&END EACH
	    &END PROGRAM_RUN_INFO
	&END PRINT
	&AVERAGES
	    &PRINT_AVERAGES ON
                &EACH
		    MD 100
		&END EACH
	    &END PRINT_AVERAGES
	&END AVERAGES
    &END MD
    &PRINT
        &RESTART
	    ADD_LAST NUMERIC
	    &EACH
	        MD 1
	    &END EACH
	&END RESTART
        &RESTART_HISTORY
            &EACH 
	        MD 500
            &END EACH
	&END RESTART_HISTORY
	&CELL
	    &EACH
	        MD 1
	    &END EACH
	&END CELL
        &FORCES
            &EACH
                MD 1
            &END EACH
        &END FORCES
        &STRESS OFF
        &END STRESS
        &TRAJECTORY
            &EACH
                MD 1
            &END EACH
        &END TRAJECTORY
        &VELOCITIES ON
            &EACH
                MD 1
            &END EACH
        &END VELOCITIES
    &END PRINT
&END MOTION

&FORCE_EVAL
    METHOD QUICKSTEP
    STRESS_TENSOR NONE
    &DFT
        MULTIPLICITY 1
        BASIS_SET_FILE_NAME ./basis_set_tzvp
        POTENTIAL_FILE_NAME ./GTH_POTENTIAL_PBE
        &MGRID
            NGRIDS 4      # CONVERGENCE PARAMETER - Elham used:   5 - optimized in BASIS_MOLOPT
            CUTOFF 100     # CONVERGENCE PARAMETER - Elham used: 300
            REL_CUTOFF 30  # CONVERGENCE PARAMETER - Elham used:  50
        &END MGRID
        &POISSON
	    PERIODIC XYZ
        &END POISSON
        &QS # Settings of the Quickstep algorithm         
            METHOD GAPW
            EXTRAPOLATION ASPC
            EXTRAPOLATION_ORDER 3
            EPS_DEFAULT 1.0E-12
            EPS_PGF_ORB 1.0E-8
        &END QS
	&SCF
            SCF_GUESS RESTART # Use the RESTART file as an initial guess (and ATOMIC if not present).       
	    EPS_SCF 1.0E-6 
	    MAX_SCF 100
	    &OT T
	        ENERGY_GAP 0.001
		MINIMIZER CG
	    &END OT
	    &OUTER_SCF
                EPS_SCF 1.0E-6
		MAX_SCF 100
	    &END OUTER_SCF
	&END SCF
        &XC
            &XC_FUNCTIONAL PBE
            &END XC_FUNCTIONAL
        &END XC 
    &END DFT
    &PRINT
        &FORCES ON
            NDIGITS 8
            &EACH
                MD 1
            &END EACH
        &END FORCES
        &STRESS_TENSOR OFF
        &END STRESS_TENSOR
    &END PRINT
    &SUBSYS
        &PRINT
            &CELL
                &EACH
                    MD 10
                &END EACH
            &END CELL
        &END PRINT
        &CELL
            PERIODIC XYZ
	    A 14.800000 0.000000 0.000000
	    B 0.000000 14.800000 0.000000
	    C 0.000000 0.000000 14.800000 
        &END CELL
	&COORD
	    SCALED F
	    UNIT angstrom
Te        10.1340734701       10.2760155307        0.7017583518
Ge         9.1682364278        4.3983108257        6.8527906529
Te        15.6550678675        6.5991524496        8.7629502670
Ge         7.2444200589        1.2303958080       10.0200102745
Te        10.0363690873        4.3892574074        2.2683209900
Ge         6.1429379419        7.3564409366       14.8723116839
Te        14.0388747234        3.5889518415       10.6219122744
Ge         6.0890402766       -0.2344545704        7.1475279275
Ge         9.2543997818        9.8157516369        5.4884415210
Te         7.1024434538        3.3066510565       11.6292335788
Te         6.4168388357        7.6089462279       11.4889399945
Te        -0.2547651913        9.8744999508        6.4700973890
Te         3.9753779398        5.3261199944       14.2139108937
Te        11.1742295675       15.5128314810        6.7544961581
Te         6.8041481724        4.7441363590        8.6725653723
Ge         6.1442953396        7.7266745054        4.7045244582
Ge         5.2575237186        9.3196760537        6.2105443836
Ge        17.7766574972        4.3874796976        4.1278011347
Te        12.8342345445        7.1367556195        7.9289272042
Ge         7.1624425694       -1.8619800204       14.3469636071
Ge        16.9415866827       15.6016492190        6.0919977319
Te         0.7771517415       14.9347379140       15.4058257264
Ge        12.8266517127       11.6026328431        7.4245434109
Te        12.2017548050        1.8848850017        3.4462992670
Ge        11.0452333878       -2.8176772207       -1.6480520311
Ge         2.0543345570       15.1505265345       -4.3515036194
Ge         4.5310529883       10.0207216033       -2.9551972845
Ge         4.3479340365        4.8538315954        6.4139304427
Ge         7.7764261435        2.7224980862        2.3897884176
Ge        -1.9554615869       14.4673900660        1.5244841343
Te        15.0636072920        6.9068193555       12.4863620386
Ge        12.8704802129        1.8438747198       12.7055360746
Ge        -5.4672239596       14.5729162036       19.3758195550
Ge        10.0170731177        6.7821907605        6.6086278294
Te         7.3444476314        8.5400005008        7.9426953921
Ge         2.4542953056        8.8225548331       12.6468858228
Te        11.6640464911        3.9843372745       14.1728546613
Te        12.2935189829       -5.5141878668       -2.1786008881
Te        15.1978069791        3.8444530558       15.7356679685
Te        15.1060217093        3.6858788095        4.8862228575
Te        12.5905490572       12.9941878471        5.5129822728
Te         4.5282993189       -0.2886529907        5.2053108361
Ge         1.7257096791        6.6610689358        5.8626216639
Te         9.3798496804        0.5586923677       16.4947742820
Te         8.3734987518       14.9284616529       -1.7599732476
Te        15.7823122483       -0.4441135086        3.9994123712
Ge         9.2968707863       -1.3045844868        6.7858034246
Ge         3.9554651254       11.7700872674        8.4737866122
Te         8.8908248963        6.8183971298       -1.1858317259
Ge        14.9942009769        3.0730380436        8.1533005072
Ge        13.9707321912       15.9412570979        5.3192289026
Ge         8.0201560530       15.9834728955        7.6823228834
Ge         4.8063577085       13.4479617084       14.0215434341
Ge         9.5509516641       15.3881255551        9.4840231762
Ge        15.2741471914        9.5229444453        9.7477457986
Te         5.9257240847       -3.9961808708       18.2795910064
Te         4.6786003047        2.6188003973        2.8562267894
Te         3.7519622182       21.4868475989        9.9621974587
Ge         9.9934175290       11.8729438293        3.3692061545
Te         2.6989183152       11.7758960046        4.2315344233
Te        -3.5637516298       13.8103202848       10.5695800080
Te         5.6811045533        6.2125972337        2.7901691544
Te         7.5843820552       -1.6424806627        2.2336517495
Ge         6.9945560037        4.8277238945       19.4061898964
Ge         8.0957576237        9.8793038369       11.0519993843
Te        14.4234883237       12.1413580054        9.1269668117
Ge         2.4828140083       17.7250543921        7.2258561867
Te        -1.3635070855        8.7341116459        0.4793876923
Ge         8.4980558423        7.4254460366        5.0821034097
Te        -1.4164572634       -2.0526317267       14.1481746822
Ge        -2.9812654011       16.5838161490       15.6962869157
Ge         2.0016215109        5.4320147377        1.2087188869
Te        10.1813135822        3.3635141160        8.9707592833
Te         5.1233177629       10.0148850595       -0.0919694338
Ge         0.8670550440        7.1854680117       17.1908729288
Te         3.2042621262       12.9519642700       11.5125860736
Te         3.3566232092        3.9937454375       10.3596539325
Ge        18.9957504717        7.2682381822       21.4566661616
Te         0.5327541417       10.6662853257       12.0025637923
Te         1.1156090063        2.5461642163       13.4389873171
Ge         8.0207421060       10.7989266930       -1.4428671718
Ge         6.9579839651        2.0295141489       13.6686463766
Te         0.5222328038       10.6254134913        2.7825606267
Ge        10.9265188654        6.0927559664       12.2427071669
Ge        12.6859245492       18.9385286692        7.5103102537
Ge         6.5316924630       12.2322643329        8.1681564099
Te         4.2935814384       16.0869449856        8.8109666896
Te         9.9136055286        7.4405875731        2.5712182125
Ge         9.3531343061        6.2281969396       -5.5525832435
Ge        16.0862441997       19.3808843594       11.9117520093
Te        12.0315918981        5.4231921786        5.0816479107
Ge         8.8507037846        3.8430727250       -0.1398385725
Ge         8.8287716094       11.3880731244        7.7306091599
Te        -2.3581573979        9.0345418616        4.2186767634
Ge        -6.4402018657        1.9012428047        5.1943705083
Te         4.3935652373       13.0086160458       16.5043242154
Te         3.0525660199        8.0524768898        3.9993443420
Te        16.6180120422       12.4804309299        0.7537723755
Te        15.1378180084        0.3424792633        8.2881717684
Ge        10.3149043725       11.0650234201       10.1065832057
Te         3.2880319658        9.7413323033        9.3081046963
Te        21.3194423600       12.0389025651       -3.7591420957
Ge         1.3968946860        8.6468330110       15.0493931068
Te         4.6528148289        1.0140533205       13.6072871380
Ge         7.6318817078       -3.1965616319        5.1837368314
Ge        12.5479340448       10.9146061226        1.7737394006
Te        11.9024891555        8.9940098623       -4.8304834970
Ge         5.6869052193       17.8059801060        5.3605354782
	&END COORD
        &VELOCITY
           0.0001272987       -0.0000005873        0.0001683023
           0.0006851641       -0.0001016816       -0.0000051776
          -0.0000970797       -0.0000767405       -0.0000514741
          -0.0000060480        0.0003552938       -0.0000774941
          -0.0000409256       -0.0001319681        0.0000889339
           0.0000494487       -0.0001011472       -0.0001325825
          -0.0000249371       -0.0000894730        0.0000714871
          -0.0000974064       -0.0000390272        0.0001465076
           0.0000403140       -0.0002713332       -0.0002116773
          -0.0000178592        0.0000877863       -0.0001720361
           0.0001325380       -0.0002637344       -0.0001045732
           0.0001598530        0.0000318896        0.0001511928
           0.0001418199        0.0001285004       -0.0000854918
           0.0001147016       -0.0002094149        0.0001802674
           0.0000412807        0.0000415598        0.0001853683
          -0.0001525972       -0.0002602979        0.0001379505
           0.0000201443       -0.0000275845        0.0004048962
           0.0001754111        0.0000000749        0.0000612608
          -0.0000681852        0.0001505395       -0.0000921430
           0.0000980839       -0.0000942946        0.0000458061
           0.0001197187        0.0003005871       -0.0000186905
          -0.0000311429       -0.0000725333        0.0001645545
          -0.0002089129       -0.0001296811        0.0000699493
          -0.0001826497       -0.0000668196        0.0002003960
           0.0001123680        0.0000867723        0.0000942583
           0.0002048764        0.0001580401       -0.0003370571
           0.0003178370        0.0000268867        0.0003885294
          -0.0000875742        0.0000980721       -0.0001158913
          -0.0002978193       -0.0000247434        0.0000988401
           0.0001711794        0.0003548727        0.0000762837
          -0.0001355149        0.0000411600        0.0002209861
           0.0001251887       -0.0000526841       -0.0002933865
           0.0000502952       -0.0000688586       -0.0000444537
          -0.0001693493        0.0000339148        0.0001054911
           0.0000397929        0.0001232385        0.0001396372
           0.0001639642       -0.0000989145       -0.0000278832
           0.0000917020        0.0000577446       -0.0001163818
           0.0000982740       -0.0001375500       -0.0000874353
           0.0001521468       -0.0000755275        0.0000133413
           0.0000400759        0.0001062054        0.0000029129
           0.0000199556       -0.0000170385       -0.0001514634
           0.0001140276        0.0001146048        0.0000530665
           0.0000939698       -0.0002013075        0.0003261008
          -0.0000832675       -0.0001307636       -0.0001870771
           0.0001148480       -0.0000538099       -0.0001106687
          -0.0001689508       -0.0000649290       -0.0001271630
           0.0000053704        0.0002746891       -0.0000211616
          -0.0000092350        0.0000101097        0.0000602532
          -0.0001242736        0.0000628943       -0.0000758064
           0.0000722103        0.0001706591        0.0000820611
           0.0002774775        0.0003442809        0.0000253977
           0.0001240822        0.0003714183        0.0002294413
          -0.0000410356        0.0000172686        0.0000837728
          -0.0003268250       -0.0000657577       -0.0000047674
          -0.0002660038        0.0002899919       -0.0000189951
           0.0001286360       -0.0000463077       -0.0000885698
          -0.0000278889        0.0001661174       -0.0000661611
          -0.0000175066       -0.0002488863       -0.0001496827
           0.0002096651       -0.0000815408       -0.0001415123
          -0.0001098330        0.0000241315       -0.0002019489
           0.0001119797       -0.0000321018       -0.0001131817
          -0.0000217172        0.0001852731       -0.0000572302
          -0.0000802573       -0.0002346180        0.0001000553
           0.0000136562       -0.0001433345        0.0002062059
          -0.0000359250        0.0000207852        0.0000341538
          -0.0001816671       -0.0001585135        0.0001688603
          -0.0001448374        0.0000996848       -0.0002027973
          -0.0000873182       -0.0001012563       -0.0002524736
           0.0001683169       -0.0001660227        0.0001550809
          -0.0000803079       -0.0000079891       -0.0000214748
          -0.0000347368        0.0003205596        0.0000829386
          -0.0002620831       -0.0000574362        0.0001626110
          -0.0000643169        0.0000878190       -0.0001463377
          -0.0001566487       -0.0000583916        0.0001427556
           0.0001894091       -0.0000117807        0.0000703105
          -0.0002356813       -0.0000478431        0.0001572047
          -0.0001491372       -0.0000257470       -0.0001715994
          -0.0004102734       -0.0001069671       -0.0000658638
           0.0001633868       -0.0000562890        0.0002264112
           0.0000579505        0.0000951510       -0.0000653394
           0.0000614911       -0.0000502509       -0.0002100756
          -0.0003088413       -0.0000175388       -0.0001957855
           0.0001456946        0.0000987103       -0.0000475484
          -0.0002701561        0.0003238065       -0.0002454216
           0.0002862434        0.0000945138        0.0001659596
          -0.0000203442        0.0001586397       -0.0000501789
          -0.0001665677       -0.0000639603        0.0001672061
           0.0001999284       -0.0001898453        0.0000001376
          -0.0000650905       -0.0000780209       -0.0000441444
           0.0002603311        0.0000977305        0.0000290474
           0.0000257983       -0.0000363797       -0.0001563609
           0.0000075280       -0.0000418227        0.0001178079
          -0.0002100399       -0.0001016887       -0.0001966548
          -0.0000904535        0.0001085971        0.0000884390
           0.0001368645       -0.0001125340        0.0002559145
           0.0000236137       -0.0000887212        0.0000075024
          -0.0000674330        0.0000240133        0.0001479842
          -0.0002810928        0.0001247365       -0.0000856032
          -0.0000443476        0.0000560492        0.0001625040
           0.0000834396       -0.0000259806       -0.0000147580
          -0.0000106723       -0.0001466512       -0.0001641096
          -0.0000170665        0.0001005291       -0.0000074274
          -0.0001917124        0.0001408562        0.0002657322
           0.0000346899       -0.0001412062       -0.0000751261
          -0.0001535303       -0.0001181025        0.0003867411
           0.0000359552        0.0001421055       -0.0001172326
          -0.0000870366       -0.0000219521       -0.0001429782
          -0.0002703028        0.0000006910       -0.0000666376
        &END VELOCITY
        &KIND Ge
            BASIS_SET ORB TZVP-MOLOPT-PBE-GTH-q4
            POTENTIAL GTH-PBE-q4
        &END KIND
        &KIND Te 
            BASIS_SET ORB TZVP-MOLOPT-PBE-GTH-q6
            POTENTIAL GTH-PBE-q6
        &END KIND
    &END SUBSYS
&END FORCE_EVAL


