&GLOBAL  
    PROJECT results/liquid_preparation
    RUN_TYPE MD
    PRINT_LEVEL MEDIUM # LOW, MEDIUM work - HIGH, DEBUG crash code
    SEED 123456
    WALLTIME 23:50:00
    PREFERRED_FFT_LIBRARY FFTSG
&END GLOBAL

&EXT_RESTART 
    RESTART_FILE_NAME results/liquid_preparation-1.restart
&END EXT_RESTART

&ATOM
    &METHOD
        METHOD_TYPE KOHN-SHAM
    &END METHOD    
&END ATOM

&MOTION
    &MD
        ENSEMBLE NVT
	STEPS 20000
        MAX_STEPS 20000
	TIMESTEP 2.0 #fs
	TEMPERATURE 1500
	COMVEL_TOL 1E-12 # maximum accepted velocity of center of mass
	&THERMOSTAT
	    TYPE AD_LANGEVIN
	    &AD_LANGEVIN
                TIMECON_NH 20.0 #fs, Nose-Hoover part of the thermostat
		TIMECON_LANGEVIN 20.0 #fs Langevin part of the thermostat
	    &END AD_LANGEVIN
	&END THERMOSTAT
	&PRINT
	    FORCE_LAST T # Print output and restart file if walltime is reached
            &ENERGY
                &EACH
                    MD 1
		&END EACH
	    &END ENERGY
            &PROGRAM_RUN_INFO
                &EACH
                    MD 10
		&END EACH
	    &END PROGRAM_RUN_INFO
	&END PRINT
	&AVERAGES
	    &PRINT_AVERAGES ON
                &EACH
		    MD 100
		&END EACH
	    &END PRINT_AVERAGES
	&END AVERAGES
    &END MD
    &PRINT
        &RESTART
	    ADD_LAST NUMERIC
	    &EACH
	        MD 1
	    &END EACH
	&END RESTART
        &RESTART_HISTORY
            &EACH 
	        MD 100
            &END EACH
	&END RESTART_HISTORY
	&CELL
	    &EACH
	        MD 1
	    &END EACH
	&END CELL
        &FORCES
            &EACH
                MD 1
            &END EACH
            # UNIT eV*angstrom^-1   
        &END FORCES
        &STRESS OFF
        &END STRESS
        &TRAJECTORY
            &EACH
                MD 1
            &END EACH
            # UNIT angstrom
        &END TRAJECTORY
        &VELOCITIES ON
            &EACH
                MD 1
            &END EACH
            # UNIT angstrom*ps^-1 
        &END VELOCITIES
    &END PRINT
&END MOTION

&FORCE_EVAL
    METHOD QUICKSTEP
    STRESS_TENSOR NONE
    &DFT
        MULTIPLICITY 1
        BASIS_SET_FILE_NAME ./basis_set_tzvp
        POTENTIAL_FILE_NAME ./GTH_POTENTIAL_SCAN
        &MGRID
            NGRIDS 4      # CONVERGENCE PARAMETER - Elham used:   5 - optimized in BASIS_MOLOPT
            CUTOFF 100     # CONVERGENCE PARAMETER - Elham used: 300
            REL_CUTOFF 30  # CONVERGENCE PARAMETER - Elham used:  50
        &END MGRID
        &POISSON
	    PERIODIC XYZ
        &END POISSON
        &QS # Settings of the Quickstep algorithm         
            METHOD GAPW
            EXTRAPOLATION ASPC
            EXTRAPOLATION_ORDER 3
            EPS_DEFAULT 1.0E-12
            EPS_PGF_ORB 1.0E-8
        &END QS
	&SCF
            SCF_GUESS RESTART # Use the RESTART file as an initial guess (and ATOMIC if not present).       
	    EPS_SCF 1.0E-6 
	    MAX_SCF 200
	    &OT T
	        ENERGY_GAP 0.001
		MINIMIZER CG
	    &END OT
	    &OUTER_SCF
                EPS_SCF 1.0E-6
		MAX_SCF 200
	    &END OUTER_SCF
	&END SCF
        &XC
            &XC_FUNCTIONAL
	        &MGGA_X_SCAN
	        &END MGGA_X_SCAN
	        &MGGA_C_SCAN
	        &END MGGA_C_SCAN
            &END XC_FUNCTIONAL
        &END XC 
    &END DFT
    &PRINT
        &FORCES ON
            NDIGITS 8
            &EACH
                MD 1
            &END EACH
        &END FORCES
        &STRESS_TENSOR OFF
        &END STRESS_TENSOR
    &END PRINT
    &SUBSYS
        &PRINT
            &CELL
                &EACH
                    MD 10
                &END EACH
            &END CELL
        &END PRINT
        &CELL
            PERIODIC XYZ
	    A 14.800000 0.000000 0.000000
	    B 0.000000 14.800000 0.000000
	    C 0.000000 0.000000 14.800000 
        &END CELL
	&COORD
	    SCALED F
	    UNIT angstrom
Te 10.440802 9.707258 5.942872
Ge 4.214704 2.231669 1.357808
Te 11.303848 10.256946 10.237897
Ge 10.638847 6.716892 13.173225
Te 6.860327 4.146247 5.988022
Ge 12.533494 11.887673 14.241418
Te 14.088934 4.867454 13.503084
Ge 5.684954 9.297687 6.469452
Ge 9.154911 11.820397 4.388080
Te 12.218032 2.397141 11.788191
Te 7.582361 6.201695 8.807638
Te 0.275187 8.262558 5.212658
Te 5.847668 8.128629 14.319379
Te 8.662055 14.091739 11.628277
Te 1.497785 1.816400 5.277367
Ge 6.072112 3.274143 9.825580
Ge 8.932501 13.563433 7.738709
Ge 6.778251 4.456220 2.647073
Te 12.138923 5.993000 6.899651
Ge 4.473475 5.639720 14.445646
Ge 12.334514 13.476272 2.935195
Te 2.063522 13.596066 11.914437
Ge 12.457577 7.235489 2.386398
Te 14.564355 3.863659 3.802252
Ge 10.762561 4.006946 5.318149
Ge 4.740289 12.331570 0.085078
Ge 0.529567 12.292154 0.346411
Ge 4.266845 8.271951 8.726925
Ge 6.954527 1.022743 5.952494
Ge 0.475981 9.087575 2.240360
Te 14.488324 8.985032 7.957413
Ge 4.252255 0.104635 13.039740
Ge 0.840713 10.152138 12.220955
Ge 12.027178 2.377777 7.286169
Te 7.699230 9.610878 10.460671
Ge 3.326758 1.354375 8.220743
Te 6.965276 4.202098 13.613072
Te 13.215176 0.059635 0.526365
Te 13.452487 7.502285 12.155228
Te 14.318077 5.559365 10.182276
Te 11.730003 10.475552 1.992089
Te 1.197610 3.306892 8.884422
Ge 7.172358 0.231702 1.212082
Te 8.394336 9.272098 13.152052
Te 9.921354 12.803424 0.350545
Te 14.492900 2.502736 0.837393
Ge 9.667516 2.076613 2.461976
Ge 4.730948 7.126972 4.383087
Te 10.682165 5.475047 1.025604
Ge 13.330892 11.828527 5.674471
Ge 6.444297 11.712051 4.466190
Ge 5.613760 11.594150 10.763625
Ge 0.908093 12.566706 7.219906
Ge 9.782722 6.338038 10.487414
Ge 12.184891 13.707285 9.027676
Te 1.808972 1.033314 14.769765
Te 3.124077 5.734484 8.688730
Te 4.953216 14.242446 9.362934
Ge 13.756020 11.971925 10.723778
Te 3.154886 9.261808 3.150943
Te 3.977884 9.433118 11.430054
Te 3.022972 5.017157 5.107060
Te 4.665842 1.396166 4.101596
Ge 9.969823 2.980702 13.831494
Ge 2.262710 8.059441 14.490187
Te 11.555559 14.481063 5.467305
Ge 0.259463 14.295449 2.484709
Te 2.420704 4.639747 1.947898
Ge 10.227194 4.236742 8.519929
Te 0.529907 1.321372 11.610185
Ge 2.391964 13.469393 4.438301
Ge 7.427196 7.352067 4.978962
Te 9.217008 2.026150 10.695511
Te 9.059123 8.836588 2.856597
Ge 4.484710 4.580432 11.820954
Te 0.543517 14.147373 9.653950
Te 2.544358 6.918716 11.881715
Ge 12.304791 8.863692 14.189620
Te 3.827048 10.988017 8.763573
Te 6.841228 1.620929 12.144237
Ge 4.218651 12.027881 2.725453
Ge 2.425543 3.745724 13.715857
Te 7.353634 10.976139 0.418285
Ge 7.509228 6.759816 12.427494
Ge 12.381749 14.425646 12.702947
Ge 8.659921 14.710922 3.756950
Te 8.207412 10.796072 7.841971
Te 10.048226 6.481811 4.151569
Ge 7.490669 6.687758 1.216282
Ge 14.417196 14.391425 5.347032
Te 12.818090 1.572555 3.804422
Ge 6.239189 8.893122 2.863260
Ge 10.216049 8.484763 8.416275
Te 2.154980 10.629614 5.731873
Ge 0.015288 5.366684 6.333419
Te 6.936282 13.517647 13.693332
Te 4.616282 13.478652 6.008475
Te 14.746778 6.831028 0.760677
Te 14.564704 1.405008 7.582509
Ge 10.240463 11.418544 12.718033
Te 5.588169 6.571556 7.011245
Te 14.210960 11.529811 2.765879
Ge 2.542891 7.554472 6.521324
Te 3.791233 1.801833 10.865148
Ge 8.659238 1.963533 7.986577
Ge 12.076209 3.300210 1.853060
Te 12.602050 9.207295 4.388914
Ge 3.272440 14.501523 2.019487
	&END COORD
        &KIND Te
            ELEMENT Te
            BASIS_SET ORB TZVP-MOLOPT-SCAN-GTH-q6
            POTENTIAL GTH-SCAN-q6
        &END KIND
        &KIND Ge
            ELEMENT Ge
            BASIS_SET ORB TZVP-MOLOPT-SCAN-GTH-q4
            POTENTIAL GTH-SCAN-q4
        &END KIND       
    &END SUBSYS
&END FORCE_EVAL


