&DOS
  outdir = './GeTe_bands/'
  prefix = 'GeTe'
  fildos = './GeTe_bands/GeTe_dos.dat'
  emin = 2.0
  emax = 14.0
  DeltaE = 0.05
/
