&CONTROL
  calculation = 'scf'
  restart_mode = 'from_scratch'
  outdir = './GeTe_bands/'
  prefix = 'GeTe'
  pseudo_dir = '../pseudo/'
  max_seconds = 3600
  nstep = 10000
  disk_io = 'medium'
/
&SYSTEM
  ibrav = 5
  celldm(1) = 8.20705691 ! Bohr
  celldm(4) = 0.53679573 ! cosine of the angle gamma between any pair of crystallographic vectors
  nat = 2
  ntyp = 2
  ecutwfc = 80
  ecutrho = 640 
  vdw_corr = 'grimme-d2'
  nbnd = 20
/
&ELECTRONS
  conv_thr = 1.0d-8
  electron_maxstep = 100
/
ATOMIC_SPECIES
Ge     72.64 ge_pbe_v1.4.uspp.F.UPF
Te     127.6 Te_pbe_v1.uspp.F.UPF
ATOMIC_POSITIONS (crystal)
Ge            0.0051576904        0.0051576904        0.0051576904
Te            0.4738423096        0.4738423096        0.4738423096
K_POINTS automatic
16 16 16 0 0 0
