&CONTROL
  calculation = 'bands'
  restart_mode = 'restart'
  outdir = './GeTe_bands/'
  prefix = 'GeTe'
  pseudo_dir = '../pseudo/'
  max_seconds = 3600
  nstep = 10000
/
&SYSTEM
  ibrav = 5
  celldm(1) = 8.20705691 ! Bohr
  celldm(4) = 0.53679573 ! cosine of the angle gamma between any pair of crystallographic vectors
  nat = 2
  ntyp = 2
  ecutwfc = 80
  ecutrho = 640 
  vdw_corr = 'grimme-d2'
  nbnd = 20
/
&ELECTRONS
  conv_thr = 1.0d-8
  electron_maxstep = 100
/
&CELL
/
&BANDS
/
ATOMIC_SPECIES
Ge     72.64 ge_pbe_v1.4.uspp.F.UPF
Te     127.6 Te_pbe_v1.uspp.F.UPF
ATOMIC_POSITIONS (crystal)
Ge            0.0051576904        0.0051576904        0.0051576904
Te            0.4738423096        0.4738423096        0.4738423096
K_POINTS crystal_b
7
0.0000000000     0.0000000000     0.0000000000 20 ! GAMMA
0.5000000000     0.0000000000     0.0000000000 20 ! L
0.5000000000     0.2441860465    -0.2441860465  1 ! B1
0.7558139535     0.5000000000     0.2441860465 20 ! B
0.5000000000     0.5000000000     0.5000000000 20 ! Z
0.0000000000     0.0000000000     0.0000000000 40 ! GAMMA
0.3720930233     0.0000000000    -0.3720930233  1 ! X
