&INPUT
  fildyn = 'GeTe.dyn'
  zasr = 'crystal'
  flfrc = 'GeTe.fc'
/
