&CONTROL
  calculation = 'vc-relax'
  restart_mode = 'from_scratch'
  outdir = './results/'
  prefix = 'GeTe'
  pseudo_dir = '../pseudo/'
  max_seconds = 3600
  nstep = 10000
/
&SYSTEM
  ibrav = 5 ! rhombohedral primitive cell
  celldm(1) = 8.267861436 ! Bohr
  celldm(4) = 0.532481505 ! cosine between the two vectors of the Bravais
  nat = 2
  ntyp = 2
  ecutwfc = 40
  ecutrho = 320 
  vdw_corr = 'grimme-d2'
/
&ELECTRONS
  conv_thr = 1.0d-8
  electron_maxstep = 100
/
&IONS
/
&CELL
cell_dofree = 'ibrav'
/
ATOMIC_SPECIES
Ge     72.64 ge_pbe_v1.4.uspp.F.UPF
Te     127.6 Te_pbe_v1.uspp.F.UPF
ATOMIC_POSITIONS crystal
Ge           0.0049400000       0.0049400000       0.0049400000 
Te           0.4740600000       0.4740600000       0.4740600000 
K_POINTS automatic
8 8 8 0 0 0
