&INPUT
  fildyn = './GeTe_bands/GeTe.dyn'
  zasr = 'crystal'
  flfrc = './GeTe_bands/GeTe.fc'
/
